

******************************************************************************
This program contains Ipopt, a library for large-scale nonlinear optimization.
 Ipopt is released as open source code under the Eclipse Public License (EPL).
         For more information visit https://github.com/coin-or/Ipopt
******************************************************************************

This is Ipopt version 3.14.11, running with linear solver MUMPS 5.5.1.

Number of nonzeros in equality constraint Jacobian...:      120
Number of nonzeros in inequality constraint Jacobian.:        0
Number of nonzeros in Lagrangian Hessian.............:      121

Total number of variables............................:       61
                     variables with only lower bounds:       21
                variables with lower and upper bounds:        0
                     variables with only upper bounds:        0
Total number of equality constraints.................:       36
Total number of inequality constraints...............:        0
        inequality constraints with only lower bounds:        0
   inequality constraints with lower and upper bounds:        0
        inequality constraints with only upper bounds:        0

iter    objective    inf_pr   inf_du lg(mu)  ||d||  lg(rg) alpha_du alpha_pr  ls
   0  7.6544195e-01 1.00e+01 1.01e+00  -1.0 0.00e+00    -  0.00e+00 0.00e+00   0
   1  1.5588585e+00 9.37e+00 2.66e+00  -1.0 9.36e+00    -  2.25e-02 6.26e-02f  1
   2  7.0341407e+01 1.78e-15 7.56e+00  -1.0 4.74e+00    -  2.64e-02 1.00e+00h  1
   3  5.3395797e+01 1.78e-15 4.61e+00  -1.0 1.82e+00    -  1.90e-01 6.52e-01f  1
   4  4.1781438e+01 1.78e-15 1.56e+00  -1.0 2.71e+00    -  2.95e-01 1.00e+00f  1
   5  4.0882016e+01 8.88e-16 3.56e-01  -1.0 7.64e-01    -  7.72e-01 7.72e-01f  1
   6  4.0453233e+01 7.11e-15 1.66e-01  -1.7 1.02e+00    -  5.41e-01 1.00e+00f  1
   7  4.0288930e+01 2.01e-10 5.87e-02  -2.5 1.04e+00    -  7.18e-01 1.00e+00f  1
   8  4.0266975e+01 1.33e-15 5.83e-05  -2.5 1.26e-01    -  1.00e+00 1.00e+00f  1
   9  4.0250651e+01 3.90e-11 4.82e-06  -3.8 4.79e-02    -  1.00e+00 1.00e+00f  1
iter    objective    inf_pr   inf_du lg(mu)  ||d||  lg(rg) alpha_du alpha_pr  ls
  10  4.0247722e+01 5.82e-12 2.69e-06  -5.7 1.62e-02    -  1.00e+00 1.00e+00f  1
  11  4.0247476e+01 8.88e-16 2.29e-07  -5.7 4.54e-03    -  1.00e+00 1.00e+00f  1
  12  4.0247472e+01 8.88e-16 2.43e-09  -5.7 4.66e-04    -  1.00e+00 1.00e+00f  1
  13  4.0247465e+01 8.88e-16 1.25e-11  -8.6 4.30e-05    -  1.00e+00 1.00e+00f  1

Number of Iterations....: 13

                                   (scaled)                 (unscaled)
Objective...............:   4.0247464728635549e+01    4.0247464728635549e+01
Dual infeasibility......:   1.2490374584853706e-11    1.2490374584853706e-11
Constraint violation....:   8.8817841970012523e-16    8.8817841970012523e-16
Variable bound violation:   8.6549622052567443e-09    8.6549622052567443e-09
Complementarity.........:   4.5757589944038105e-09    4.5757589944038105e-09
Overall NLP error.......:   4.5757589944038105e-09    4.5757589944038105e-09


Number of objective function evaluations             = 14
Number of objective gradient evaluations             = 14
Number of equality constraint evaluations            = 14
Number of inequality constraint evaluations          = 0
Number of equality constraint Jacobian evaluations   = 14
Number of inequality constraint Jacobian evaluations = 0
Number of Lagrangian Hessian evaluations             = 13
Total seconds in IPOPT                               = 0.015

EXIT: Optimal Solution Found.
 
Ipopt 3.14.11: Optimal Solution Found
